NB_EMPLOYES = 50;

NIVEAU_HIERARCHIQUE_E = [|1, 
|1, 
|3, 
|1, 
|3, 
|2, 
|1, 
|3, 
|2, 
|2, 
|1, 
|2, 
|1, 
|1, 
|3, 
|3, 
|2, 
|3, 
|1, 
|3, 
|3, 
|1, 
|1, 
|3, 
|1, 
|1, 
|1, 
|2, 
|1, 
|3, 
|2, 
|3, 
|3, 
|2, 
|3, 
|2, 
|1, 
|2, 
|1, 
|1, 
|3, 
|3, 
|1, 
|1, 
|1, 
|1, 
|3, 
|1, 
|3, 
|3|];

COMP_CLEES_E = [|1, 0, 0, 1, 1, 1, 1, 0, 0, 1, 
|1, 1, 1, 1, 0, 1, 0, 0, 0, 1, 
|1, 1, 1, 1, 1, 1, 0, 0, 1, 0, 
|1, 1, 0, 1, 0, 0, 1, 1, 0, 1, 
|0, 0, 0, 1, 0, 1, 1, 1, 1, 1, 
|0, 0, 0, 0, 1, 1, 1, 1, 0, 0, 
|0, 0, 1, 1, 1, 0, 1, 1, 0, 1, 
|1, 1, 1, 0, 0, 1, 0, 0, 1, 0, 
|1, 1, 1, 0, 1, 1, 0, 0, 0, 0, 
|1, 0, 0, 1, 0, 1, 1, 1, 1, 1, 
|0, 0, 0, 0, 1, 1, 0, 1, 0, 0, 
|1, 1, 0, 1, 0, 0, 0, 0, 1, 0, 
|0, 0, 1, 0, 0, 1, 1, 1, 0, 0, 
|1, 1, 0, 1, 0, 1, 1, 1, 0, 0, 
|1, 0, 1, 1, 1, 0, 0, 0, 0, 1, 
|0, 1, 1, 1, 1, 1, 0, 1, 1, 1, 
|1, 1, 0, 0, 1, 1, 1, 1, 1, 0, 
|0, 1, 1, 1, 0, 1, 0, 1, 1, 1, 
|1, 1, 0, 1, 1, 1, 0, 0, 1, 0, 
|0, 0, 1, 1, 0, 0, 0, 1, 0, 0, 
|1, 0, 1, 0, 1, 1, 1, 0, 1, 1, 
|1, 1, 1, 0, 0, 1, 1, 1, 1, 0, 
|0, 1, 0, 1, 1, 1, 1, 1, 0, 1, 
|1, 0, 1, 0, 1, 1, 0, 1, 1, 0, 
|1, 0, 0, 1, 1, 0, 1, 0, 0, 1, 
|0, 1, 0, 1, 0, 1, 1, 1, 1, 1, 
|0, 0, 1, 1, 1, 1, 0, 1, 0, 1, 
|0, 0, 0, 1, 1, 0, 1, 1, 1, 0, 
|0, 0, 0, 0, 1, 1, 1, 1, 0, 1, 
|1, 0, 0, 1, 1, 1, 1, 0, 1, 1, 
|1, 0, 1, 0, 1, 1, 0, 0, 0, 1, 
|1, 0, 0, 0, 1, 0, 1, 1, 0, 1, 
|1, 0, 1, 1, 0, 0, 0, 1, 1, 0, 
|0, 1, 0, 0, 1, 1, 0, 1, 1, 1, 
|0, 0, 0, 1, 0, 0, 1, 0, 0, 0, 
|1, 1, 1, 0, 1, 0, 1, 0, 1, 1, 
|0, 1, 0, 0, 1, 1, 0, 1, 1, 0, 
|1, 0, 1, 0, 1, 1, 0, 1, 1, 1, 
|0, 0, 0, 0, 1, 1, 0, 1, 0, 1, 
|1, 0, 1, 1, 1, 0, 1, 1, 0, 0, 
|0, 0, 0, 0, 1, 1, 0, 1, 0, 1, 
|0, 0, 1, 1, 0, 0, 0, 1, 0, 1, 
|0, 1, 1, 1, 1, 1, 0, 0, 1, 0, 
|1, 0, 0, 1, 1, 0, 1, 0, 1, 1, 
|0, 1, 0, 1, 0, 1, 0, 0, 1, 1, 
|0, 0, 0, 0, 1, 0, 1, 0, 1, 0, 
|1, 1, 0, 1, 1, 1, 0, 1, 1, 1, 
|1, 1, 1, 1, 0, 0, 1, 1, 1, 0, 
|0, 0, 0, 0, 1, 1, 0, 1, 0, 0, 
|1, 1, 0, 1, 1, 0, 1, 1, 1, 0|];

AUTRES_COMP_E = [|0, 1, 0, 0, 0, 0, 0, 1, 0, 0, 
|0, 0, 1, 0, 0, 0, 1, 1, 0, 1, 
|0, 0, 1, 0, 0, 0, 1, 0, 0, 1, 
|1, 0, 1, 1, 0, 0, 0, 0, 0, 0, 
|0, 0, 1, 0, 1, 0, 0, 0, 0, 0, 
|0, 1, 1, 0, 0, 1, 1, 0, 0, 0, 
|0, 0, 0, 1, 1, 0, 0, 0, 0, 0, 
|1, 0, 0, 1, 0, 0, 0, 0, 0, 1, 
|1, 1, 0, 0, 0, 0, 0, 1, 1, 0, 
|0, 1, 0, 1, 0, 0, 1, 1, 0, 1, 
|0, 0, 0, 1, 1, 0, 0, 0, 1, 1, 
|0, 0, 0, 0, 0, 1, 0, 1, 1, 0, 
|1, 1, 0, 1, 0, 1, 0, 0, 1, 0, 
|1, 1, 1, 0, 1, 0, 1, 0, 1, 1, 
|0, 0, 1, 0, 0, 1, 0, 1, 1, 0, 
|0, 1, 0, 1, 0, 0, 1, 0, 0, 1, 
|0, 1, 0, 0, 0, 1, 0, 0, 0, 0, 
|0, 1, 0, 0, 0, 1, 1, 0, 0, 0, 
|0, 0, 0, 0, 0, 1, 0, 0, 1, 0, 
|0, 0, 0, 0, 0, 1, 0, 0, 0, 0, 
|0, 1, 1, 1, 1, 0, 0, 1, 1, 1, 
|0, 1, 1, 1, 1, 0, 0, 1, 1, 1, 
|1, 1, 1, 0, 0, 1, 0, 0, 0, 0, 
|0, 1, 1, 0, 0, 0, 1, 0, 1, 0, 
|1, 0, 0, 0, 0, 0, 1, 0, 0, 1, 
|1, 1, 0, 1, 1, 1, 0, 0, 1, 0, 
|0, 1, 1, 1, 0, 0, 0, 0, 1, 0, 
|0, 0, 0, 1, 1, 0, 1, 0, 0, 1, 
|0, 0, 0, 1, 0, 0, 0, 0, 0, 1, 
|1, 0, 0, 1, 0, 0, 0, 0, 1, 0, 
|0, 0, 0, 0, 1, 1, 1, 0, 0, 0, 
|0, 0, 1, 0, 1, 0, 0, 0, 1, 0, 
|0, 0, 0, 0, 0, 0, 0, 1, 0, 0, 
|0, 1, 1, 0, 1, 1, 1, 1, 0, 1, 
|0, 0, 0, 1, 1, 0, 1, 1, 1, 1, 
|0, 0, 0, 1, 0, 0, 0, 0, 0, 0, 
|0, 0, 0, 0, 1, 1, 1, 0, 1, 0, 
|0, 0, 1, 1, 1, 0, 1, 1, 1, 1, 
|0, 0, 0, 1, 0, 1, 0, 1, 0, 1, 
|1, 0, 0, 1, 0, 0, 1, 1, 0, 1, 
|1, 0, 0, 0, 0, 1, 0, 0, 1, 1, 
|1, 1, 1, 1, 0, 1, 1, 0, 0, 1, 
|1, 0, 0, 1, 1, 1, 0, 1, 1, 0, 
|0, 1, 1, 0, 1, 0, 0, 1, 0, 1, 
|0, 0, 0, 1, 0, 1, 1, 1, 0, 0, 
|0, 0, 1, 1, 1, 0, 0, 0, 1, 1, 
|0, 0, 1, 0, 1, 1, 1, 0, 1, 1, 
|1, 0, 0, 0, 1, 0, 1, 0, 0, 0, 
|0, 0, 0, 1, 1, 1, 0, 0, 0, 0, 
|0, 1, 0, 0, 0, 0, 0, 1, 0, 0|];

NIVEAU_EDUCATION_E = [|5, 
|4, 
|2, 
|4, 
|5, 
|4, 
|7, 
|1, 
|3, 
|7, 
|6, 
|5, 
|5, 
|7, 
|2, 
|4, 
|7, 
|6, 
|7, 
|4, 
|1, 
|3, 
|5, 
|2, 
|4, 
|1, 
|4, 
|5, 
|1, 
|7, 
|3, 
|1, 
|2, 
|3, 
|5, 
|2, 
|6, 
|4, 
|5, 
|1, 
|7, 
|5, 
|2, 
|6, 
|7, 
|3, 
|4, 
|5, 
|7, 
|5|];

TITRE_PROFESSIONNEL_E = [|3, 
|5, 
|1, 
|4, 
|3, 
|5, 
|4, 
|2, 
|3, 
|1, 
|2, 
|2, 
|0, 
|3, 
|3, 
|3, 
|0, 
|4, 
|4, 
|6, 
|6, 
|6, 
|2, 
|0, 
|6, 
|0, 
|4, 
|3, 
|4, 
|6, 
|6, 
|1, 
|4, 
|1, 
|2, 
|6, 
|0, 
|2, 
|4, 
|0, 
|5, 
|0, 
|2, 
|6, 
|3, 
|3, 
|1, 
|4, 
|4, 
|3|];

NIVEAU_FR_E = [|3, 
|1, 
|1, 
|2, 
|2, 
|2, 
|3, 
|4, 
|4, 
|1, 
|2, 
|2, 
|4, 
|1, 
|1, 
|4, 
|3, 
|1, 
|2, 
|3, 
|1, 
|1, 
|1, 
|4, 
|2, 
|1, 
|3, 
|4, 
|4, 
|3, 
|1, 
|2, 
|1, 
|2, 
|2, 
|3, 
|4, 
|1, 
|3, 
|1, 
|4, 
|4, 
|4, 
|3, 
|1, 
|3, 
|1, 
|1, 
|4, 
|1|];

NIVEAU_EN_E = [|1, 
|1, 
|3, 
|3, 
|1, 
|2, 
|3, 
|3, 
|3, 
|1, 
|1, 
|2, 
|4, 
|1, 
|2, 
|3, 
|2, 
|1, 
|1, 
|2, 
|1, 
|3, 
|2, 
|2, 
|4, 
|4, 
|4, 
|4, 
|4, 
|4, 
|2, 
|2, 
|1, 
|1, 
|4, 
|1, 
|3, 
|1, 
|1, 
|2, 
|2, 
|4, 
|2, 
|1, 
|2, 
|3, 
|3, 
|2, 
|4, 
|2|];

AUTRES_LANGUES_E = [|0, 0, 0, 0, 1, 0, 0, 0, 0, 0, 
|1, 0, 0, 0, 1, 0, 0, 0, 0, 0, 
|0, 0, 0, 1, 0, 0, 0, 0, 0, 0, 
|0, 0, 0, 0, 0, 0, 0, 0, 0, 0, 
|0, 0, 0, 0, 0, 0, 0, 0, 1, 0, 
|0, 0, 1, 0, 0, 0, 1, 1, 0, 0, 
|0, 0, 0, 0, 0, 0, 0, 0, 0, 0, 
|0, 0, 0, 0, 0, 0, 0, 0, 0, 1, 
|0, 0, 0, 0, 0, 0, 0, 1, 0, 0, 
|0, 0, 0, 0, 0, 1, 0, 0, 0, 0, 
|0, 1, 1, 0, 0, 0, 1, 0, 1, 0, 
|0, 0, 0, 0, 0, 0, 0, 0, 0, 0, 
|0, 0, 0, 0, 0, 0, 0, 0, 0, 0, 
|0, 0, 0, 0, 0, 1, 1, 0, 0, 0, 
|0, 0, 0, 0, 0, 0, 0, 0, 0, 1, 
|0, 0, 0, 0, 0, 0, 0, 0, 0, 0, 
|0, 1, 0, 0, 0, 0, 0, 0, 0, 0, 
|0, 0, 1, 0, 0, 0, 1, 0, 0, 0, 
|0, 1, 0, 0, 0, 0, 0, 0, 0, 0, 
|0, 0, 0, 0, 0, 0, 0, 0, 0, 0, 
|1, 0, 0, 0, 0, 0, 0, 1, 0, 0, 
|0, 0, 0, 0, 0, 1, 1, 0, 0, 0, 
|0, 0, 0, 0, 0, 0, 0, 1, 0, 0, 
|0, 0, 0, 1, 0, 0, 0, 0, 0, 0, 
|0, 0, 0, 0, 1, 1, 0, 0, 0, 0, 
|0, 0, 0, 0, 0, 0, 0, 0, 0, 0, 
|0, 0, 0, 0, 0, 0, 0, 0, 0, 0, 
|0, 0, 0, 0, 0, 0, 0, 0, 0, 0, 
|0, 1, 0, 0, 0, 0, 0, 1, 0, 0, 
|0, 0, 0, 0, 1, 0, 0, 0, 0, 0, 
|1, 0, 0, 0, 0, 0, 0, 0, 0, 1, 
|0, 0, 0, 0, 0, 1, 0, 0, 0, 0, 
|0, 0, 0, 0, 0, 1, 0, 1, 0, 0, 
|0, 0, 0, 0, 0, 0, 1, 0, 0, 0, 
|0, 1, 0, 0, 0, 0, 0, 0, 0, 0, 
|0, 1, 0, 1, 0, 0, 0, 0, 0, 0, 
|0, 0, 1, 0, 0, 0, 0, 0, 0, 0, 
|0, 0, 1, 0, 0, 0, 0, 0, 0, 0, 
|0, 0, 0, 0, 0, 0, 0, 0, 0, 0, 
|0, 0, 0, 0, 0, 0, 0, 1, 0, 0, 
|0, 0, 0, 0, 0, 0, 0, 0, 0, 0, 
|0, 0, 0, 1, 0, 0, 0, 0, 0, 0, 
|0, 0, 0, 0, 0, 0, 0, 0, 0, 0, 
|0, 0, 0, 1, 1, 0, 0, 0, 0, 1, 
|1, 0, 0, 0, 0, 0, 0, 0, 0, 0, 
|0, 0, 0, 0, 0, 0, 0, 0, 0, 0, 
|1, 0, 0, 0, 0, 0, 1, 0, 0, 0, 
|1, 0, 0, 0, 0, 1, 0, 0, 0, 0, 
|0, 0, 0, 0, 0, 0, 0, 1, 0, 0, 
|0, 0, 0, 1, 0, 0, 0, 0, 0, 0|];